p cnf 61 223
2 -3 -4 0
-2 3 -4 0
2 3 4 0
-2 -3 4 0
5 1 0
5 -4 0
-1 4 -5 0
8 2 0
8 -7 0
-2 7 -8 0
9 2 0
9 -8 0
-2 8 -9 0
8 -9 -10 0
-8 9 -10 0
8 9 10 0
-8 -9 10 0
11 -6 0
11 10 0
6 -10 -11 0
-13 -6 0
-13 -12 0
6 12 13 0
11 -13 -14 0
-11 13 -14 0
11 13 14 0
-11 -13 14 0
7 2 -15 0
-7 -2 -15 0
7 -2 15 0
-7 2 15 0
-16 -14 0
-16 -15 0
14 15 16 0
-5 -16 -17 0
5 16 -17 0
-5 16 17 0
5 -16 17 0
19 -18 0
19 -12 0
18 12 -19 0
20 2 0
20 -3 0
-2 3 -20 0
13 20 -21 0
-13 -20 -21 0
13 -20 21 0
-13 20 21 0
4 13 -22 0
-4 -13 -22 0
4 -13 22 0
-4 13 22 0
23 8 0
23 18 0
-8 -18 -23 0
24 13 0
24 -12 0
-13 12 -24 0
25 -23 0
25 -24 0
23 24 -25 0
-26 3 0
-26 8 0
-3 -8 26 0
26 -27 -28 0
-26 27 -28 0
26 27 28 0
-26 -27 28 0
29 1 0
29 -11 0
-1 11 -29 0
-28 -29 -30 0
28 29 -30 0
-28 29 30 0
28 -29 30 0
31 25 0
31 -30 0
-25 30 -31 0
-22 -31 -32 0
22 31 -32 0
-22 31 32 0
22 -31 32 0
33 -21 0
33 -32 0
21 32 -33 0
34 19 0
34 -33 0
-19 33 -34 0
-35 17 0
-35 -34 0
-17 34 35 0
-36 -2 0
-36 9 0
2 -9 36 0
-37 -6 0
-37 36 0
6 -36 37 0
-38 -27 0
-38 -11 0
27 11 38 0
-39 -37 0
-39 -38 0
37 38 39 0
6 -3 -40 0
-6 3 -40 0
6 3 40 0
-6 -3 40 0
-41 -39 0
-41 40 0
39 -40 41 0
42 -8 0
42 4 0
8 -4 -42 0
44 -8 0
44 43 0
8 -43 -44 0
-45 12 0
-45 -3 0
-12 3 45 0
-46 11 0
-46 -45 0
-11 45 46 0
18 -46 -47 0
-18 46 -47 0
18 46 47 0
-18 -46 47 0
48 43 0
48 18 0
-43 -18 -48 0
-49 47 0
-49 48 0
-47 -48 49 0
50 44 0
50 49 0
-44 -49 -50 0
42 -50 -51 0
-42 50 -51 0
42 50 51 0
-42 -50 51 0
41 -51 -52 0
-41 51 -52 0
41 51 52 0
-41 -51 52 0
-10 -13 -53 0
10 13 -53 0
-10 13 53 0
10 -13 53 0
-54 27 0
-54 3 0
-27 -3 54 0
54 -27 -55 0
-54 27 -55 0
54 27 55 0
-54 -27 55 0
56 -53 0
56 55 0
53 -55 -56 0
6 -57 -58 0
-6 57 -58 0
6 57 58 0
-6 -57 58 0
-59 56 0
-59 -58 0
-56 58 59 0
-52 59 -60 0
52 -59 -60 0
-52 -59 60 0
52 59 60 0
-61 -35 0
-61 60 0
35 -60 61 0
31 -11 -28 0
-24 -10 -7 41 -27 0
22 -40 42 -53 0
-3 41 30 31 10 0
43 12 -31 -50 -40 0
-29 -14 -60 -10 -25 0
52 29 0
-58 -42 -32 -36 0
-53 43 -2 0
11 5 0
58 -52 -17 21 -24 0
-28 7 0
-25 -40 57 27 60 -24 0
-21 -4 0
33 -55 -61 0
36 49 -21 10 26 43 0
-4 46 -34 0
-51 39 44 0
6 -12 49 -30 -1 -59 0
-26 -23 0
25 60 -40 57 -53 0
59 -19 1 -44 15 0
-52 48 -55 46 -10 0
-58 -57 60 0
13 -39 -57 0
-9 -49 -43 44 39 0
29 -14 22 -49 46 0
18 -44 -26 61 25 0
14 -25 -40 -51 0
13 14 5 15 -49 0
10 52 -25 0
9 34 57 39 41 0
-2 -58 -40 42 0
23 43 0
1 32 -24 0
-32 -27 34 0
-33 -36 0
-6 -36 -32 -7 -1 -18 0
54 -40 17 48 56 35 0
36 -27 -42 0
-53 -35 0
6 -9 -18 3 7 -21 0
-8 13 30 0
-46 26 -44 -13 38 -49 0
37 24 -17 0
30 -48 55 -14 0
-28 -40 9 42 0
-17 20 -25 0
-61 5 0
-39 -16 -52 29 14 -53 0
2 28 0
61 0
